num_clientes = 6;
num_dias = 3;
num_plantas = 3;
min_porcent_demanda = 70;
reg_alto_dias = 1;
reg_alto_porcent = 80;
costo = [50, 20, 30];
capacidad = [1100, 350, 600];
pago = [60, 55, 53];
demanda = [| 750,  850, 900,
          | 730,  870, 910, 
          | 720, 880,  920, 
          | 710,  890, 930, 
          | 700,  900, 940, 
          | 690, 910,  950
          |];